\ This file was automatically generated by Zimpl
\ set V := { 1 .. 5 };
\ set E := { <1,2>, <1,4>, <2,3>, <2,4>, <3,4>, <3,5>, <4,5> };
\ set T := { 1, 3, 5 };
\ param c[E] := <1,2> 1, <1,4> 2, <2,3> 3, <2,4> 4, <3,4> 5, <3,5> 6, <4,5> 7;
\ var x[E] binary;
\ minimize cost: sum <a,b> in E : c[a,b] * x[a,b];
\ set P[] := powerset(V);
\ set I   := indexset(P);
\ subto partition:     forall <i> in I with      P[i]  inter T != {}                     and (V \ P[i]) inter T != {} do       
\ sum <a,b> in E with (<a> in P[i] and not <b> in P[i])                         or (<b> in P[i] and not <a> in P[i]) : x[a,b] >
\ = 1;
\Problem name: steinerbaum.zpl
Minimize
 cost:  + x#1#2 +2 x#1#4 +4 x#2#4 +3 x#2#3 +5 x#3#4 +6 x#3#5
  +7 x#4#5
Subject to
 partition_1:
  + x#1#4 + x#1#2 >= 1
 partition_2:
  + x#3#5 + x#3#4 + x#2#3 >= 1
 partition_3:
  + x#4#5 + x#3#5 >= 1
 partition_4:
  + x#2#3 + x#2#4 + x#1#4 >= 1
 partition_5:
  + x#3#5 + x#3#4 + x#2#3 + x#1#4 + x#1#2 >= 1
 partition_6:
  + x#4#5 + x#3#4 + x#2#4 + x#1#2 >= 1
 partition_7:
  + x#4#5 + x#3#5 + x#1#4 + x#1#2 >= 1
 partition_8:
  + x#3#5 + x#3#4 + x#2#4 + x#1#2 >= 1
 partition_9:
  + x#4#5 + x#3#5 + x#2#3 + x#2#4 + x#1#2 >= 1
 partition_10:
  + x#4#5 + x#3#5 + x#2#3 + x#2#4 + x#1#4 >= 1
 partition_11:
  + x#4#5 + x#3#4 + x#2#3 >= 1
 partition_12:
  + x#3#5 + x#3#4 + x#2#4 + x#1#4 >= 1
 partition_13:
  + x#3#5 + x#3#4 + x#2#4 + x#1#4 >= 1
 partition_14:
  + x#4#5 + x#3#4 + x#2#3 >= 1
 partition_15:
  + x#4#5 + x#3#5 + x#2#3 + x#2#4 + x#1#4 >= 1
 partition_16:
  + x#4#5 + x#3#5 + x#2#3 + x#2#4 + x#1#2 >= 1
 partition_17:
  + x#3#5 + x#3#4 + x#2#4 + x#1#2 >= 1
 partition_18:
  + x#4#5 + x#3#5 + x#1#4 + x#1#2 >= 1
 partition_19:
  + x#4#5 + x#3#4 + x#2#4 + x#1#2 >= 1
 partition_20:
  + x#3#5 + x#3#4 + x#2#3 + x#1#4 + x#1#2 >= 1
 partition_21:
  + x#2#3 + x#2#4 + x#1#4 >= 1
 partition_22:
  + x#4#5 + x#3#5 >= 1
 partition_23:
  + x#3#5 + x#3#4 + x#2#3 >= 1
 partition_24:
  + x#1#4 + x#1#2 >= 1
Bounds
 0 <= x#1#2 <= 1
 0 <= x#1#4 <= 1
 0 <= x#2#4 <= 1
 0 <= x#2#3 <= 1
 0 <= x#3#4 <= 1
 0 <= x#3#5 <= 1
 0 <= x#4#5 <= 1
General
 x#1#2
 x#1#4
 x#2#4
 x#2#3
 x#3#4
 x#3#5
 x#4#5
End
